1835, 0, 0, 32, 2
1836, 0, 1, 85, 0
1837, 0, 2, 59, 3
1838, 0, 3, 92, 1
1839, 1, 0, 39, 3
1840, 1, 1, 31, 0
1841, 1, 2, 34, 2
1842, 1, 3, 59, 1
1843, 2, 0, 99, 1
1844, 2, 1, 70, 2
1845, 2, 2, 81, 3
1846, 2, 3, 66, 0
1847, 3, 0, 79, 3
1848, 3, 1, 57, 0
1849, 3, 2, 52, 1
1850, 3, 3, 42, 2
